peakDumbCharging = 14800; 
Machine = anon_enum(16); 
machineSpeed = [3700,3700,3700,3700,3700,3700,3700,3700,3700,3700,3700,3700,3700,3700,3700,3700]; 
machineLoad = [3700,3700,3700,3700,3700,3700,3700,3700,3700,3700,3700,3700,3700,3700,3700,3700]; 
Car = anon_enum(12); 
demandCar = [2320,7080,4000,11040,3880,11840,25120,27120,25400,6120,6080,14960]; 
arrivalCar = [82,78,64,61,59,56,56,51,48,46,40,36]; 
departureCar = [84,82,66,66,62,62,68,72,60,49,43,41]; 
